p cnf 33 86
a 29 6 0
e 1 2 3 4 5 7 8 9 10 11 12 13 14 15 16 17 18 19 20 21 22 23 24 25 26 27 28 30 31 32 33 0
-3 1 0
-3 -2 0
-1 2 3 0
5 6 -7 0
-5 -6 -7 0
5 -6 7 0
-5 6 7 0
-9 7 0
-9 8 0
-7 -8 9 0
-10 -4 0
-10 -9 0
4 9 10 0
-10 -1 -11 0
10 1 -11 0
-10 1 11 0
10 -1 11 0
-13 -4 0
-13 12 0
4 -12 13 0
13 -2 -14 0
-13 2 -14 0
13 2 14 0
-13 -2 14 0
-15 -11 0
-15 14 0
11 -14 15 0
16 -3 0
16 15 0
3 -15 -16 0
-17 4 0
-17 -2 0
-4 2 17 0
-19 -17 0
-19 18 0
17 -18 19 0
-20 -6 0
-20 -8 0
6 8 20 0
-21 20 0
-21 -20 0
22 21 0
22 13 0
-21 -13 -22 0
23 -2 0
23 1 0
2 -1 -23 0
-24 2 0
-24 -23 0
-2 23 24 0
-25 -23 0
-25 8 0
23 -8 25 0
26 -13 0
26 25 0
13 -25 -26 0
27 -4 0
27 26 0
4 -26 -27 0
28 24 0
28 27 0
-24 -27 -28 0
29 5 0
29 -10 0
-5 10 -29 0
-30 28 0
-30 29 0
-28 -29 30 0
31 -22 0
31 -30 0
22 30 -31 0
32 19 0
32 -31 0
-19 31 -32 0
-33 -16 0
-33 32 0
16 -32 33 0
11 28 -18 1 0
-33 -4 1 -20 6 -21 7 -9 0
19 -15 3 10 0
1 3 -17 -8 -19 25 12 -27 0
-24 23 -15 32 -21 0
6 -12 -14 8 24 0
23 20 10 22 -11 21 0
-28 8 7 32 26 11 0
33 0
